NAME 
OBJSENSE MAX
ROWS
 N  OBJ
 L  packing[0]
 L  packing[1]
 L  packing[2]
 L  packing[3]
 L  packing[4]
 L  packing[5]
 L  packing[6]
 L  packing[7]
 L  packing[8]
 L  packing[9]
 L  packing[10]
 L  packing[11]
 L  packing[12]
 L  packing[13]
 L  packing[14]
 L  packing[15]
 L  packing[16]
 L  packing[17]
 L  packing[18]
 L  packing[19]
 L  packing[20]
 L  packing[21]
 L  packing[22]
 L  packing[23]
 L  packing[24]
 L  packing[25]
 L  packing[26]
 L  packing[27]
 L  packing[28]
 L  packing[29]
 L  packing[30]
 L  packing[31]
 L  packing[32]
 L  packing[33]
 L  packing[34]
 L  packing[35]
 L  packing[36]
 L  packing[37]
 L  packing[38]
 L  packing[39]
 L  packing[40]
 L  packing[41]
 L  packing[42]
 L  packing[43]
 L  packing[44]
 L  packing[45]
 L  packing[46]
 L  packing[47]
 L  packing[48]
 L  packing[49]
 L  R61     
 L  R62     
 L  R63     
 L  R64     
 L  R65     
 L  R66     
 L  R67     
 L  R68     
 L  R69     
 L  R70     
 L  R71     
COLUMNS
    MARKER    'MARKER'                 'INTORG'
    x[1]      OBJ       105
    x[1]      packing[0]  93
    x[1]      packing[1]  199
    x[1]      packing[2]  30
    x[1]      packing[3]  59
    x[1]      packing[5]  78
    x[1]      packing[6]  40
    x[1]      packing[7]  171
    x[1]      packing[8]  94
    x[1]      packing[9]  70
    x[1]      packing[10]  181
    x[1]      packing[12]  91
    x[1]      packing[14]  120
    x[1]      packing[17]  53
    x[1]      packing[18]  167
    x[1]      packing[19]  166
    x[1]      packing[20]  102
    x[1]      packing[21]  164
    x[1]      packing[22]  174
    x[1]      packing[23]  2
    x[1]      packing[24]  60
    x[1]      packing[25]  76
    x[1]      packing[26]  26
    x[1]      packing[27]  90
    x[1]      packing[28]  37
    x[1]      packing[29]  99
    x[1]      packing[30]  55
    x[1]      packing[31]  109
    x[1]      packing[33]  151
    x[1]      packing[34]  133
    x[1]      packing[35]  8
    x[1]      packing[36]  54
    x[1]      packing[37]  151
    x[1]      packing[39]  185
    x[1]      packing[42]  167
    x[1]      packing[43]  116
    x[1]      packing[44]  86
    x[1]      packing[45]  30
    x[1]      packing[46]  144
    x[1]      packing[48]  48
    x[1]      R61       1
    x[1]      R62       1
    x[1]      R64       1
    x[1]      R65       1
    x[1]      R66       1
    x[1]      R68       1
    x[1]      R69       1
    x[2]      OBJ       59
    x[2]      packing[0]  62
    x[2]      packing[1]  18
    x[2]      packing[4]  173
    x[2]      packing[5]  108
    x[2]      packing[6]  64
    x[2]      packing[7]  15
    x[2]      packing[10]  149
    x[2]      packing[11]  33
    x[2]      packing[12]  53
    x[2]      packing[14]  82
    x[2]      packing[15]  37
    x[2]      packing[16]  6
    x[2]      packing[17]  146
    x[2]      packing[18]  107
    x[2]      packing[19]  184
    x[2]      packing[20]  42
    x[2]      packing[21]  52
    x[2]      packing[22]  88
    x[2]      packing[23]  40
    x[2]      packing[24]  114
    x[2]      packing[25]  173
    x[2]      packing[27]  37
    x[2]      packing[28]  6
    x[2]      packing[30]  26
    x[2]      packing[31]  40
    x[2]      packing[33]  95
    x[2]      packing[34]  178
    x[2]      packing[35]  114
    x[2]      packing[36]  139
    x[2]      packing[37]  188
    x[2]      packing[38]  118
    x[2]      packing[39]  93
    x[2]      packing[41]  53
    x[2]      packing[42]  105
    x[2]      packing[43]  71
    x[2]      packing[44]  87
    x[2]      packing[45]  140
    x[2]      packing[46]  41
    x[2]      packing[47]  48
    x[2]      packing[48]  140
    x[3]      OBJ       19
    x[3]      packing[1]  100
    x[3]      packing[2]  163
    x[3]      packing[3]  139
    x[3]      packing[4]  196
    x[3]      packing[5]  129
    x[3]      packing[6]  93
    x[3]      packing[7]  153
    x[3]      packing[8]  170
    x[3]      packing[9]  122
    x[3]      packing[10]  46
    x[3]      packing[11]  102
    x[3]      packing[12]  118
    x[3]      packing[13]  56
    x[3]      packing[15]  108
    x[3]      packing[16]  132
    x[3]      packing[18]  80
    x[3]      packing[19]  27
    x[3]      packing[20]  85
    x[3]      packing[21]  94
    x[3]      packing[22]  59
    x[3]      packing[24]  147
    x[3]      packing[27]  132
    x[3]      packing[28]  159
    x[3]      packing[29]  38
    x[3]      packing[30]  155
    x[3]      packing[31]  134
    x[3]      packing[33]  100
    x[3]      packing[34]  194
    x[3]      packing[35]  186
    x[3]      packing[36]  186
    x[3]      packing[37]  139
    x[3]      packing[39]  169
    x[3]      packing[40]  77
    x[3]      packing[42]  85
    x[3]      packing[43]  152
    x[3]      packing[44]  52
    x[3]      packing[45]  66
    x[3]      packing[46]  113
    x[3]      packing[47]  162
    x[3]      packing[48]  76
    x[3]      packing[49]  21
    x[4]      OBJ       45
    x[4]      packing[0]  123
    x[4]      packing[1]  86
    x[4]      packing[2]  26
    x[4]      packing[3]  188
    x[4]      packing[5]  189
    x[4]      packing[7]  148
    x[4]      packing[9]  2
    x[4]      packing[10]  72
    x[4]      packing[11]  39
    x[4]      packing[12]  199
    x[4]      packing[13]  31
    x[4]      packing[14]  180
    x[4]      packing[15]  31
    x[4]      packing[16]  129
    x[4]      packing[17]  155
    x[4]      packing[18]  51
    x[4]      packing[19]  69
    x[4]      packing[20]  28
    x[4]      packing[21]  108
    x[4]      packing[22]  34
    x[4]      packing[23]  54
    x[4]      packing[24]  196
    x[4]      packing[25]  97
    x[4]      packing[26]  156
    x[4]      packing[27]  28
    x[4]      packing[28]  125
    x[4]      packing[29]  13
    x[4]      packing[30]  54
    x[4]      packing[31]  16
    x[4]      packing[32]  132
    x[4]      packing[33]  131
    x[4]      packing[34]  183
    x[4]      packing[36]  169
    x[4]      packing[38]  9
    x[4]      packing[39]  193
    x[4]      packing[40]  170
    x[4]      packing[41]  65
    x[4]      packing[42]  112
    x[4]      packing[45]  97
    x[4]      packing[47]  89
    x[4]      packing[48]  99
    x[4]      packing[49]  36
    x[5]      OBJ       194
    x[5]      packing[0]  65
    x[5]      packing[1]  113
    x[5]      packing[2]  176
    x[5]      packing[3]  156
    x[5]      packing[4]  171
    x[5]      packing[5]  33
    x[5]      packing[7]  121
    x[5]      packing[11]  21
    x[5]      packing[12]  156
    x[5]      packing[13]  82
    x[5]      packing[15]  27
    x[5]      packing[16]  180
    x[5]      packing[17]  90
    x[5]      packing[18]  138
    x[5]      packing[19]  165
    x[5]      packing[20]  193
    x[5]      packing[23]  46
    x[5]      packing[24]  153
    x[5]      packing[25]  52
    x[5]      packing[26]  42
    x[5]      packing[27]  50
    x[5]      packing[29]  53
    x[5]      packing[30]  99
    x[5]      packing[31]  67
    x[5]      packing[32]  1
    x[5]      packing[33]  122
    x[5]      packing[34]  36
    x[5]      packing[35]  74
    x[5]      packing[36]  6
    x[5]      packing[38]  45
    x[5]      packing[40]  172
    x[5]      packing[42]  157
    x[5]      packing[43]  53
    x[5]      packing[46]  89
    x[5]      packing[47]  48
    x[5]      packing[48]  123
    x[5]      R61       1
    x[5]      R62       1
    x[5]      R64       1
    x[5]      R66       1
    x[5]      R67       1
    x[5]      R68       1
    x[5]      R69       1
    x[5]      R70       1
    x[6]      OBJ       191
    x[6]      packing[0]  22
    x[6]      packing[1]  193
    x[6]      packing[2]  62
    x[6]      packing[3]  26
    x[6]      packing[4]  76
    x[6]      packing[6]  35
    x[6]      packing[7]  66
    x[6]      packing[8]  73
    x[6]      packing[9]  181
    x[6]      packing[10]  108
    x[6]      packing[11]  3
    x[6]      packing[12]  133
    x[6]      packing[13]  16
    x[6]      packing[14]  140
    x[6]      packing[15]  193
    x[6]      packing[16]  199
    x[6]      packing[18]  112
    x[6]      packing[19]  87
    x[6]      packing[20]  76
    x[6]      packing[21]  116
    x[6]      packing[22]  90
    x[6]      packing[23]  64
    x[6]      packing[24]  28
    x[6]      packing[26]  178
    x[6]      packing[27]  22
    x[6]      packing[28]  117
    x[6]      packing[31]  138
    x[6]      packing[33]  10
    x[6]      packing[34]  108
    x[6]      packing[35]  144
    x[6]      packing[37]  119
    x[6]      packing[38]  132
    x[6]      packing[40]  42
    x[6]      packing[42]  57
    x[6]      packing[43]  107
    x[6]      packing[44]  16
    x[6]      packing[46]  10
    x[6]      packing[47]  13
    x[6]      packing[49]  144
    x[6]      R61       1
    x[6]      R62       1
    x[6]      R63       1
    x[6]      R64       1
    x[6]      R65       1
    x[6]      R66       1
    x[6]      R67       1
    x[6]      R69       1
    x[6]      R70       1
    x[6]      R71       1
    x[7]      OBJ       147
    x[7]      packing[0]  75
    x[7]      packing[1]  116
    x[7]      packing[5]  126
    x[7]      packing[6]  129
    x[7]      packing[8]  108
    x[7]      packing[9]  153
    x[7]      packing[10]  94
    x[7]      packing[11]  129
    x[7]      packing[12]  9
    x[7]      packing[13]  45
    x[7]      packing[14]  174
    x[7]      packing[15]  151
    x[7]      packing[16]  189
    x[7]      packing[17]  182
    x[7]      packing[18]  26
    x[7]      packing[19]  150
    x[7]      packing[20]  43
    x[7]      packing[21]  135
    x[7]      packing[23]  99
    x[7]      packing[24]  186
    x[7]      packing[28]  119
    x[7]      packing[29]  107
    x[7]      packing[30]  163
    x[7]      packing[32]  178
    x[7]      packing[33]  115
    x[7]      packing[34]  89
    x[7]      packing[35]  138
    x[7]      packing[36]  70
    x[7]      packing[37]  127
    x[7]      packing[38]  122
    x[7]      packing[39]  128
    x[7]      packing[41]  12
    x[7]      packing[42]  17
    x[7]      packing[43]  152
    x[7]      packing[44]  100
    x[7]      packing[45]  71
    x[7]      packing[46]  189
    x[7]      packing[47]  169
    x[7]      packing[48]  28
    x[7]      packing[49]  155
    x[7]      R63       1
    x[7]      R65       1
    x[7]      R68       1
    x[7]      R71       1
    x[8]      OBJ       124
    x[8]      packing[1]  121
    x[8]      packing[4]  116
    x[8]      packing[5]  107
    x[8]      packing[7]  4
    x[8]      packing[9]  67
    x[8]      packing[11]  169
    x[8]      packing[12]  99
    x[8]      packing[13]  91
    x[8]      packing[14]  168
    x[8]      packing[15]  179
    x[8]      packing[16]  195
    x[8]      packing[17]  127
    x[8]      packing[18]  76
    x[8]      packing[19]  158
    x[8]      packing[20]  85
    x[8]      packing[21]  125
    x[8]      packing[22]  87
    x[8]      packing[24]  180
    x[8]      packing[27]  23
    x[8]      packing[28]  37
    x[8]      packing[30]  48
    x[8]      packing[31]  198
    x[8]      packing[32]  16
    x[8]      packing[33]  99
    x[8]      packing[35]  171
    x[8]      packing[37]  194
    x[8]      packing[38]  73
    x[8]      packing[39]  133
    x[8]      packing[42]  134
    x[8]      packing[43]  177
    x[8]      packing[44]  190
    x[8]      packing[45]  189
    x[8]      packing[46]  112
    x[8]      packing[47]  17
    x[8]      R69       1
    x[9]      OBJ       33
    x[9]      packing[0]  10
    x[9]      packing[1]  155
    x[9]      packing[2]  155
    x[9]      packing[3]  152
    x[9]      packing[4]  166
    x[9]      packing[5]  133
    x[9]      packing[8]  77
    x[9]      packing[9]  168
    x[9]      packing[10]  47
    x[9]      packing[11]  111
    x[9]      packing[12]  128
    x[9]      packing[13]  59
    x[9]      packing[14]  137
    x[9]      packing[15]  27
    x[9]      packing[16]  147
    x[9]      packing[17]  10
    x[9]      packing[18]  191
    x[9]      packing[19]  114
    x[9]      packing[20]  170
    x[9]      packing[21]  146
    x[9]      packing[22]  60
    x[9]      packing[24]  67
    x[9]      packing[26]  182
    x[9]      packing[27]  138
    x[9]      packing[28]  176
    x[9]      packing[29]  194
    x[9]      packing[30]  53
    x[9]      packing[32]  191
    x[9]      packing[33]  81
    x[9]      packing[34]  130
    x[9]      packing[36]  44
    x[9]      packing[39]  147
    x[9]      packing[40]  66
    x[9]      packing[41]  70
    x[9]      packing[42]  196
    x[9]      packing[43]  90
    x[9]      packing[44]  185
    x[9]      packing[45]  161
    x[9]      packing[46]  185
    x[9]      packing[48]  46
    x[9]      packing[49]  39
    x[10]     OBJ       83
    x[10]     packing[0]  19
    x[10]     packing[3]  45
    x[10]     packing[5]  108
    x[10]     packing[6]  104
    x[10]     packing[7]  12
    x[10]     packing[8]  99
    x[10]     packing[9]  109
    x[10]     packing[11]  109
    x[10]     packing[12]  166
    x[10]     packing[13]  176
    x[10]     packing[14]  53
    x[10]     packing[15]  76
    x[10]     packing[16]  97
    x[10]     packing[17]  56
    x[10]     packing[18]  167
    x[10]     packing[20]  111
    x[10]     packing[21]  120
    x[10]     packing[22]  154
    x[10]     packing[25]  127
    x[10]     packing[26]  52
    x[10]     packing[28]  137
    x[10]     packing[29]  175
    x[10]     packing[33]  181
    x[10]     packing[34]  124
    x[10]     packing[35]  85
    x[10]     packing[36]  1
    x[10]     packing[40]  183
    x[10]     packing[42]  88
    x[10]     packing[45]  16
    x[10]     packing[47]  86
    x[10]     packing[48]  44
    x[10]     packing[49]  87
    x[10]     R63       1
    x[10]     R66       1
    x[10]     R67       1
    x[10]     R68       1
    x[10]     R70       1
    x[10]     R71       1
    x[11]     OBJ       154
    x[11]     packing[2]  54
    x[11]     packing[3]  48
    x[11]     packing[5]  92
    x[11]     packing[6]  27
    x[11]     packing[7]  194
    x[11]     packing[8]  9
    x[11]     packing[9]  48
    x[11]     packing[10]  9
    x[11]     packing[11]  173
    x[11]     packing[12]  109
    x[11]     packing[13]  167
    x[11]     packing[14]  199
    x[11]     packing[17]  166
    x[11]     packing[18]  152
    x[11]     packing[19]  25
    x[11]     packing[20]  87
    x[11]     packing[21]  67
    x[11]     packing[22]  69
    x[11]     packing[23]  137
    x[11]     packing[24]  147
    x[11]     packing[25]  11
    x[11]     packing[26]  55
    x[11]     packing[27]  185
    x[11]     packing[28]  128
    x[11]     packing[29]  56
    x[11]     packing[30]  46
    x[11]     packing[31]  54
    x[11]     packing[32]  127
    x[11]     packing[33]  133
    x[11]     packing[35]  130
    x[11]     packing[36]  67
    x[11]     packing[37]  148
    x[11]     packing[38]  169
    x[11]     packing[39]  165
    x[11]     packing[40]  157
    x[11]     packing[41]  140
    x[11]     packing[42]  167
    x[11]     packing[46]  159
    x[11]     packing[48]  93
    x[11]     packing[49]  86
    x[11]     R64       1
    x[11]     R66       1
    x[11]     R67       1
    x[11]     R70       1
    x[12]     OBJ       149
    x[12]     packing[0]  69
    x[12]     packing[2]  180
    x[12]     packing[4]  6
    x[12]     packing[5]  117
    x[12]     packing[6]  89
    x[12]     packing[7]  169
    x[12]     packing[8]  126
    x[12]     packing[10]  39
    x[12]     packing[12]  176
    x[12]     packing[13]  75
    x[12]     packing[14]  43
    x[12]     packing[15]  31
    x[12]     packing[17]  19
    x[12]     packing[18]  56
    x[12]     packing[19]  1
    x[12]     packing[20]  46
    x[12]     packing[21]  29
    x[12]     packing[24]  43
    x[12]     packing[25]  193
    x[12]     packing[26]  6
    x[12]     packing[28]  122
    x[12]     packing[29]  99
    x[12]     packing[30]  141
    x[12]     packing[32]  56
    x[12]     packing[33]  131
    x[12]     packing[35]  191
    x[12]     packing[37]  144
    x[12]     packing[38]  120
    x[12]     packing[39]  2
    x[12]     packing[40]  134
    x[12]     packing[43]  174
    x[12]     packing[44]  22
    x[12]     packing[48]  65
    x[12]     R61       1
    x[12]     R62       1
    x[12]     R63       1
    x[12]     R64       1
    x[12]     R65       1
    x[12]     R66       1
    x[12]     R67       1
    x[12]     R68       1
    x[12]     R70       1
    x[13]     OBJ       101
    x[13]     packing[1]  193
    x[13]     packing[3]  136
    x[13]     packing[4]  183
    x[13]     packing[5]  106
    x[13]     packing[6]  53
    x[13]     packing[8]  141
    x[13]     packing[9]  66
    x[13]     packing[10]  35
    x[13]     packing[11]  45
    x[13]     packing[12]  2
    x[13]     packing[13]  8
    x[13]     packing[14]  159
    x[13]     packing[15]  183
    x[13]     packing[16]  52
    x[13]     packing[17]  58
    x[13]     packing[18]  36
    x[13]     packing[20]  170
    x[13]     packing[21]  198
    x[13]     packing[22]  96
    x[13]     packing[24]  125
    x[13]     packing[25]  173
    x[13]     packing[26]  145
    x[13]     packing[27]  170
    x[13]     packing[28]  124
    x[13]     packing[29]  91
    x[13]     packing[30]  1
    x[13]     packing[31]  41
    x[13]     packing[33]  79
    x[13]     packing[34]  173
    x[13]     packing[35]  17
    x[13]     packing[36]  28
    x[13]     packing[38]  174
    x[13]     packing[39]  52
    x[13]     packing[40]  194
    x[13]     packing[41]  168
    x[13]     packing[42]  124
    x[13]     packing[43]  153
    x[13]     packing[44]  31
    x[13]     packing[46]  40
    x[13]     packing[47]  141
    x[13]     packing[48]  156
    x[13]     packing[49]  73
    x[14]     OBJ       101
    x[14]     packing[1]  26
    x[14]     packing[2]  71
    x[14]     packing[3]  15
    x[14]     packing[5]  45
    x[14]     packing[6]  24
    x[14]     packing[7]  13
    x[14]     packing[8]  176
    x[14]     packing[9]  101
    x[14]     packing[10]  79
    x[14]     packing[11]  150
    x[14]     packing[12]  122
    x[14]     packing[14]  84
    x[14]     packing[15]  175
    x[14]     packing[16]  81
    x[14]     packing[17]  129
    x[14]     packing[18]  117
    x[14]     packing[19]  161
    x[14]     packing[21]  87
    x[14]     packing[22]  25
    x[14]     packing[24]  151
    x[14]     packing[25]  161
    x[14]     packing[26]  75
    x[14]     packing[27]  74
    x[14]     packing[28]  150
    x[14]     packing[29]  28
    x[14]     packing[30]  84
    x[14]     packing[34]  130
    x[14]     packing[35]  108
    x[14]     packing[36]  37
    x[14]     packing[37]  183
    x[14]     packing[38]  93
    x[14]     packing[41]  183
    x[14]     packing[42]  137
    x[14]     packing[43]  160
    x[14]     packing[44]  175
    x[14]     packing[45]  52
    x[14]     packing[46]  95
    x[14]     packing[47]  174
    x[14]     packing[48]  184
    x[14]     packing[49]  138
    x[15]     OBJ       178
    x[15]     packing[0]  169
    x[15]     packing[1]  1
    x[15]     packing[5]  4
    x[15]     packing[6]  136
    x[15]     packing[7]  128
    x[15]     packing[9]  134
    x[15]     packing[11]  136
    x[15]     packing[13]  18
    x[15]     packing[16]  133
    x[15]     packing[17]  149
    x[15]     packing[18]  23
    x[15]     packing[19]  55
    x[15]     packing[22]  49
    x[15]     packing[23]  11
    x[15]     packing[25]  178
    x[15]     packing[27]  53
    x[15]     packing[28]  75
    x[15]     packing[30]  137
    x[15]     packing[31]  62
    x[15]     packing[33]  156
    x[15]     packing[34]  187
    x[15]     packing[35]  94
    x[15]     packing[36]  149
    x[15]     packing[37]  30
    x[15]     packing[38]  47
    x[15]     packing[39]  149
    x[15]     packing[40]  120
    x[15]     packing[41]  189
    x[15]     packing[42]  78
    x[15]     packing[44]  152
    x[15]     packing[45]  160
    x[15]     packing[46]  21
    x[15]     packing[47]  188
    x[15]     packing[48]  153
    x[15]     packing[49]  168
    x[15]     R61       1
    x[15]     R63       1
    x[15]     R64       1
    x[15]     R69       1
    x[15]     R70       1
    x[15]     R71       1
    x[16]     OBJ       129
    x[16]     packing[0]  89
    x[16]     packing[1]  24
    x[16]     packing[2]  149
    x[16]     packing[3]  18
    x[16]     packing[5]  135
    x[16]     packing[7]  43
    x[16]     packing[8]  42
    x[16]     packing[10]  137
    x[16]     packing[11]  168
    x[16]     packing[13]  121
    x[16]     packing[17]  196
    x[16]     packing[18]  54
    x[16]     packing[20]  81
    x[16]     packing[21]  181
    x[16]     packing[22]  131
    x[16]     packing[23]  44
    x[16]     packing[24]  162
    x[16]     packing[25]  104
    x[16]     packing[27]  79
    x[16]     packing[28]  175
    x[16]     packing[29]  174
    x[16]     packing[32]  166
    x[16]     packing[35]  6
    x[16]     packing[37]  195
    x[16]     packing[38]  68
    x[16]     packing[39]  153
    x[16]     packing[40]  64
    x[16]     packing[41]  181
    x[16]     packing[42]  178
    x[16]     packing[43]  167
    x[16]     packing[46]  3
    x[16]     packing[47]  127
    x[16]     packing[48]  196
    x[16]     packing[49]  125
    x[16]     R61       1
    x[16]     R62       1
    x[16]     R64       1
    x[16]     R65       1
    x[16]     R67       1
    x[16]     R68       1
    x[16]     R70       1
    x[16]     R71       1
    x[17]     OBJ       123
    x[17]     packing[0]  132
    x[17]     packing[3]  11
    x[17]     packing[5]  17
    x[17]     packing[6]  2
    x[17]     packing[7]  146
    x[17]     packing[8]  6
    x[17]     packing[9]  53
    x[17]     packing[11]  110
    x[17]     packing[13]  24
    x[17]     packing[15]  80
    x[17]     packing[18]  169
    x[17]     packing[19]  38
    x[17]     packing[21]  178
    x[17]     packing[22]  69
    x[17]     packing[23]  54
    x[17]     packing[25]  73
    x[17]     packing[27]  139
    x[17]     packing[28]  77
    x[17]     packing[30]  172
    x[17]     packing[31]  48
    x[17]     packing[32]  98
    x[17]     packing[33]  184
    x[17]     packing[34]  132
    x[17]     packing[35]  25
    x[17]     packing[36]  164
    x[17]     packing[37]  136
    x[17]     packing[38]  184
    x[17]     packing[39]  112
    x[17]     packing[40]  33
    x[17]     packing[41]  13
    x[17]     packing[43]  173
    x[17]     packing[44]  48
    x[18]     OBJ       125
    x[18]     packing[0]  190
    x[18]     packing[1]  55
    x[18]     packing[2]  118
    x[18]     packing[3]  149
    x[18]     packing[4]  76
    x[18]     packing[5]  169
    x[18]     packing[6]  84
    x[18]     packing[7]  98
    x[18]     packing[9]  134
    x[18]     packing[13]  96
    x[18]     packing[14]  107
    x[18]     packing[15]  135
    x[18]     packing[16]  60
    x[18]     packing[17]  151
    x[18]     packing[18]  20
    x[18]     packing[19]  169
    x[18]     packing[20]  151
    x[18]     packing[22]  93
    x[18]     packing[23]  88
    x[18]     packing[24]  148
    x[18]     packing[25]  44
    x[18]     packing[26]  188
    x[18]     packing[27]  152
    x[18]     packing[28]  8
    x[18]     packing[29]  79
    x[18]     packing[30]  15
    x[18]     packing[31]  199
    x[18]     packing[32]  9
    x[18]     packing[34]  179
    x[18]     packing[35]  32
    x[18]     packing[36]  11
    x[18]     packing[37]  33
    x[18]     packing[38]  55
    x[18]     packing[40]  172
    x[18]     packing[41]  164
    x[18]     packing[42]  66
    x[18]     packing[43]  190
    x[18]     packing[46]  149
    x[18]     packing[47]  71
    x[18]     packing[48]  192
    x[18]     R61       1
    x[18]     R62       1
    x[19]     OBJ       12
    x[19]     packing[0]  76
    x[19]     packing[1]  93
    x[19]     packing[2]  24
    x[19]     packing[3]  52
    x[19]     packing[4]  151
    x[19]     packing[5]  161
    x[19]     packing[6]  1
    x[19]     packing[7]  155
    x[19]     packing[8]  14
    x[19]     packing[9]  138
    x[19]     packing[11]  138
    x[19]     packing[12]  27
    x[19]     packing[13]  167
    x[19]     packing[15]  157
    x[19]     packing[16]  3
    x[19]     packing[17]  11
    x[19]     packing[18]  131
    x[19]     packing[19]  5
    x[19]     packing[20]  95
    x[19]     packing[21]  55
    x[19]     packing[22]  67
    x[19]     packing[23]  59
    x[19]     packing[24]  98
    x[19]     packing[26]  82
    x[19]     packing[28]  179
    x[19]     packing[29]  89
    x[19]     packing[30]  14
    x[19]     packing[32]  134
    x[19]     packing[33]  163
    x[19]     packing[34]  190
    x[19]     packing[36]  188
    x[19]     packing[39]  139
    x[19]     packing[40]  85
    x[19]     packing[41]  7
    x[19]     packing[42]  147
    x[19]     packing[43]  70
    x[19]     packing[44]  32
    x[19]     packing[45]  123
    x[19]     packing[46]  134
    x[19]     packing[47]  52
    x[19]     packing[49]  18
    x[20]     OBJ       111
    x[20]     packing[0]  129
    x[20]     packing[2]  185
    x[20]     packing[3]  85
    x[20]     packing[4]  74
    x[20]     packing[5]  121
    x[20]     packing[6]  103
    x[20]     packing[7]  142
    x[20]     packing[8]  68
    x[20]     packing[9]  47
    x[20]     packing[10]  96
    x[20]     packing[11]  124
    x[20]     packing[13]  32
    x[20]     packing[14]  160
    x[20]     packing[16]  65
    x[20]     packing[17]  145
    x[20]     packing[19]  128
    x[20]     packing[20]  34
    x[20]     packing[21]  126
    x[20]     packing[23]  127
    x[20]     packing[24]  101
    x[20]     packing[25]  141
    x[20]     packing[26]  83
    x[20]     packing[27]  31
    x[20]     packing[28]  118
    x[20]     packing[29]  16
    x[20]     packing[32]  174
    x[20]     packing[34]  33
    x[20]     packing[35]  81
    x[20]     packing[36]  50
    x[20]     packing[37]  110
    x[20]     packing[38]  62
    x[20]     packing[39]  95
    x[20]     packing[40]  66
    x[20]     packing[41]  155
    x[20]     packing[42]  107
    x[20]     packing[43]  72
    x[20]     packing[46]  146
    x[20]     packing[47]  81
    x[20]     packing[49]  145
    MARKER    'MARKER'                 'INTEND'
RHS
    RHS1      packing[0]  662
    RHS1      packing[1]  747
    RHS1      packing[2]  697
    RHS1      packing[3]  640
    RHS1      packing[4]  694
    RHS1      packing[5]  989
    RHS1      packing[6]  492
    RHS1      packing[7]  889
    RHS1      packing[8]  602
    RHS1      packing[9]  797
    RHS1      packing[10]  546
    RHS1      packing[11]  880
    RHS1      packing[12]  794
    RHS1      packing[13]  632
    RHS1      packing[14]  903
    RHS1      packing[15]  795
    RHS1      packing[16]  834
    RHS1      packing[17]  922
    RHS1      packing[18]  937
    RHS1      packing[19]  851
    RHS1      packing[20]  800
    RHS1      packing[21]  991
    RHS1      packing[22]  673
    RHS1      packing[23]  413
    RHS1      packing[24]  1053
    RHS1      packing[25]  802
    RHS1      packing[26]  635
    RHS1      packing[27]  702
    RHS1      packing[28]  1035
    RHS1      packing[29]  656
    RHS1      packing[30]  632
    RHS1      packing[31]  553
    RHS1      packing[32]  641
    RHS1      packing[33]  966
    RHS1      packing[34]  1100
    RHS1      packing[35]  802
    RHS1      packing[36]  682
    RHS1      packing[37]  949
    RHS1      packing[38]  736
    RHS1      packing[39]  958
    RHS1      packing[40]  868
    RHS1      packing[41]  700
    RHS1      packing[42]  1061
    RHS1      packing[43]  1039
    RHS1      packing[44]  588
    RHS1      packing[45]  553
    RHS1      packing[46]  815
    RHS1      packing[47]  733
    RHS1      packing[48]  822
    RHS1      packing[49]  618
    RHS1      R61       6
    RHS1      R62       5
    RHS1      R63       4
    RHS1      R64       6
    RHS1      R65       4
    RHS1      R66       5
    RHS1      R67       5
    RHS1      R68       5
    RHS1      R69       4
    RHS1      R70       6
    RHS1      R71       4
BOUNDS
 BV BND1      x[1]    
 BV BND1      x[2]    
 BV BND1      x[3]    
 BV BND1      x[4]    
 BV BND1      x[5]    
 BV BND1      x[6]    
 BV BND1      x[7]    
 BV BND1      x[8]    
 BV BND1      x[9]    
 BV BND1      x[10]   
 BV BND1      x[11]   
 BV BND1      x[12]   
 BV BND1      x[13]   
 BV BND1      x[14]   
 BV BND1      x[15]   
 BV BND1      x[16]   
 BV BND1      x[17]   
 BV BND1      x[18]   
 BV BND1      x[19]   
 BV BND1      x[20]   
ENDATA
